50
9031

871 232
617 964
734 960
749 589
954 238
365 105
83 146
348 912
260 780
353 566
719 288
241 702
781 735
521 636
255 925
400 248
805 386
891 352
790 722
835 649
605 393
585 313
438 78
72 869
149 440
371 660
424 104
239 643
640 405
382 171
848 754
305 75
756 520
770 709
270 840
464 404
914 196
192 64
138 463
138 123
882 296
873 754
404 494
501 904
518 833
20 14
39 810
213 642
672 914
443 131
